(set-option :produce-models true)
(set-logic QF_UF)
(declare-fun p8() Bool)
(declare-fun p7() Bool)
(declare-fun p11() Bool)
(declare-fun p16() Bool)
(declare-fun p12() Bool)
(declare-fun p3() Bool)
(declare-fun p9() Bool)
(declare-fun p15() Bool)
(declare-fun p2() Bool)
(declare-fun p10() Bool)
(declare-fun p1() Bool)
(declare-fun p19() Bool)
(declare-fun p18() Bool)
(declare-fun p0() Bool)
(declare-fun p13() Bool)
(declare-fun p17() Bool)
(declare-fun p5() Bool)
(declare-fun p14() Bool)
(declare-fun p6() Bool)
(declare-fun p4() Bool)
(assert
(and (or (not p8) (not p7) (not p11)) (or (not p16) (not p12) (not p3)) (or p16 p9 (not p15)) (or p2 p10 p8) (or (not p2) (not p8) p2) (or p1 p19 p18) (or (not p19) (not p15) (not p19)) (or p15 p16 (not p0)) (or p13 (not p17) p13) (or (not p17) p5 (not p10)) (or (not p14) (not p11) p8) (or p15 (not p11) p10) (or p6 p14 p9) (or p7 (not p17) p0) (or p17 p1 (not p2)) (or p4 (not p14) p3) (or (not p1) (not p7) (not p3)) (or (not p18) (not p9) (not p18)) (or (not p4) p12 p6) (or p3 (not p5) (not p14)) (or (not p7) p7 p1) (or (not p7) (not p10) (not p9)) (or (not p1) p0 p7) (or p8 (not p11) (not p6)) (or (not p1) (not p7) (not p16)) (or p13 p1 p1) (or (not p18) (not p8) p8) (or (not p13) (not p7) (not p4)) (or (not p3) (not p6) p4) (or (not p1) p0 p8) (or p13 (not p17) (not p4)) (or p15 (not p2) (not p2)) (or (not p1) (not p5) p1) (or p11 (not p2) p3) (or (not p11) p8 p3) (or (not p17) p10 p15) (or (not p11) p2 p15) (or (not p3) (not p12) (not p6)) (or (not p0) (not p16) (not p0)) (or p8 (not p12) (not p11)) (or p17 p9 (not p16)) (or (not p18) p16 p8) (or (not p9) (not p4) (not p15)) (or p4 (not p8) p18) (or (not p7) p15 p17) (or (not p0) p9 (not p17)) (or (not p15) (not p16) (not p8)) (or p9 p18 (not p5)) (or (not p3) (not p15) (not p11)) (or (not p18) p13 p1) (or (not p16) p13 (not p3)) (or p9 p2 p4) (or p13 p15 p17) (or p12 p16 (not p14)) (or p10 p12 p18) (or p18 p0 p18) (or (not p3) p0 p7) (or (not p5) (not p10) p14) (or p11 (not p0) p8) (or p1 p5 (not p0)) (or p15 p18 p5) (or p17 p3 p3) (or p9 (not p12) p6) (or (not p17) p18 (not p1)) (or p2 (not p3) p6) (or p10 p8 (not p7)) (or (not p6) p2 (not p15)) (or (not p6) (not p3) p16) (or (not p19) (not p11) (not p12)) (or p15 p2 (not p9)) (or p16 p9 p14) (or p2 p13 p16) (or (not p8) (not p14) (not p6)) (or p8 p6 (not p2)) (or p3 (not p2) p15) (or p2 p14 p0) (or (not p17) (not p1) p6) (or p10 p3 (not p14)) (or p15 p14 (not p10)) (or p7 p14 (not p11)) (or p3 p18 (not p0)) (or p2 (not p4) p1) (or p17 p11 (not p13)) (or p16 p18 p3) (or (not p0) (not p7) (not p7)) (or p15 (not p12) p13) (or (not p7) p9 p12))
)
(check-sat)
(get-model)
